WARNING: for repeatability, setting FPU to use double precision
============================[ Problem Statistics ]=============================
|                                                                             |
|  Number of variables:           100                                         |
|  Number of clauses:             449                                         |
|  Parse time:                   0.00 s                                       |
|  Eliminated clauses:           0.00 Mb                                      |
|  Simplification time:          0.00 s                                       |
|                                                                             |
============================[ Search Statistics ]==============================
| Conflicts |          ORIGINAL         |          LEARNT          | Progress |
|           |    Vars  Clauses Literals |    Limit  Clauses Lit/Cl |          |
===============================================================================
===============================================================================
restarts              : 1
conflicts             : 95             (43779 /sec)
decisions             : 128            (0.00 % random) (58986 /sec)
propagations          : 2532           (1166820 /sec)
conflict literals     : 765            (11.97 % deleted)
Memory used           : 13.00 MB
CPU time              : 0.00217 s

SATISFIABLE
